NAME: large_cities
TYPE: TSP
COMMENT: Larger TSP dataset with 20 cities for performance testing
DIMENSION: 20
EDGE_WEIGHT_TYPE: EUC_2D
NODE_COORD_SECTION
1 37.7749 -122.4194
2 40.7128 -74.0060
3 41.8781 -87.6298
4 29.7604 -95.3698
5 33.4484 -112.0740
6 39.7392 -104.9903
7 32.7767 -96.7970
8 25.7617 -80.1918
9 47.6062 -122.3321
10 45.5152 -122.6784
11 39.9526 -75.1652
12 42.3601 -71.0589
13 38.9072 -77.0369
14 33.7490 -84.3880
15 35.2271 -80.8431
16 36.1627 -86.7816
17 39.1612 -84.4569
18 41.4993 -81.6944
19 42.3314 -83.0458
20 43.0389 -87.9065
